
Gurobi 11.0.3 (linux64) logging started Sun Aug 24 14:35:49 2025

Set parameter LogFile to value "/home/yihong/Coding/OR_SUC/SUC_ALSO_results_bigM100000_thread4/case24_ieee_rts_theta0.1_epsilon0.2_gurobi_seed120000_num_gen10_N_WDR50_load_scaling_factor2_exact_T2quadra_cost.txt"
Set parameter TimeLimit to value 3600
Gurobi Optimizer version 11.0.3 build v11.0.3rc0 (linux64 - "Ubuntu 20.04.6 LTS")

CPU model: AMD EPYC 7532 32-Core Processor, instruction set [SSE2|AVX|AVX2]
Thread count: 64 physical cores, 128 logical processors, using up to 4 threads

Academic license 2399124 - for non-commercial use only - registered to yi___@ed.ac.uk
Optimize a model with 2201 rows, 421 columns and 38854 nonzeros
Model fingerprint: 0xcb74288a
Model has 20 quadratic constraints
Variable types: 351 continuous, 70 integer (70 binary)
Coefficient statistics:
  Matrix range     [4e-04, 1e+05]
  QMatrix range    [2e-03, 7e-03]
  QLMatrix range   [1e+00, 4e+02]
  Objective range  [1e+00, 1e+00]
  Bounds range     [1e+00, 1e+00]
  RHS range        [1e+00, 1e+05]
Presolve removed 1316 rows and 176 columns
Presolve time: 0.03s
Presolved: 885 rows, 245 columns, 16066 nonzeros
Presolved model has 20 quadratic constraint(s)
Variable types: 175 continuous, 70 integer (70 binary)

Root relaxation: objective 2.100853e+03, 118 iterations, 0.00 seconds (0.00 work units)

    Nodes    |    Current Node    |     Objective Bounds      |     Work
 Expl Unexpl |  Obj  Depth IntInf | Incumbent    BestBd   Gap | It/Node Time

     0     0 2100.85279    0   20          - 2100.85279      -     -    0s
     0     0 13097.8505    0   36          - 13097.8505      -     -    0s
     0     0 71200.6035    0   29          - 71200.6035      -     -    0s
     0     0 71426.9613    0   28          - 71426.9613      -     -    0s
     0     0 72266.7126    0   23          - 72266.7126      -     -    0s
     0     0 72346.4805    0   23          - 72346.4805      -     -    0s
     0     0 72490.5762    0   21          - 72490.5762      -     -    0s
H    0     0                    73584.125590 72525.2478  1.44%     -    0s
     0     0 72525.2478    0   23 73584.1256 72525.2478  1.44%     -    0s
     0     0 72525.2478    0   25 73584.1256 72525.2478  1.44%     -    0s
     0     0 72526.3435    0   25 73584.1256 72526.3435  1.44%     -    0s
     0     0 72526.3435    0   24 73584.1256 72526.3435  1.44%     -    0s
     0     0 72552.3996    0   24 73584.1256 72552.3996  1.40%     -    0s
H    0     0                    73181.576618 72552.3996  0.86%     -    0s
     0     0 72552.3996    0   23 73181.5766 72552.3996  0.86%     -    0s
     0     0 72552.3996    0   15 73181.5766 72552.3996  0.86%     -    0s
     0     0 72552.3996    0   17 73181.5766 72552.3996  0.86%     -    0s
     0     0 72552.3996    0   19 73181.5766 72552.3996  0.86%     -    0s
     0     0 72552.3996    0   19 73181.5766 72552.3996  0.86%     -    0s
     0     0 72552.3996    0   22 73181.5766 72552.3996  0.86%     -    0s
     0     0 72559.7607    0   17 73181.5766 72559.7607  0.85%     -    0s
     0     0 72559.7607    0   18 73181.5766 72559.7607  0.85%     -    0s
     0     0 72559.7607    0   16 73181.5766 72559.7607  0.85%     -    0s
     0     0 72559.7607    0   16 73181.5766 72559.7607  0.85%     -    0s
     0     2 72559.7607    0   16 73181.5766 72559.7607  0.85%     -    1s

Cutting planes:
  Gomory: 5
  Implied bound: 14
  MIR: 40
  Flow cover: 7
  RLT: 13
  Relax-and-lift: 2

Explored 430 nodes (6147 simplex iterations) in 1.17 seconds (0.82 work units)
Thread count was 4 (of 128 available processors)

Solution count 2: 73181.6 73584.1 

Optimal solution found (tolerance 1.00e-03)
Best objective 7.318157661792e+04, best bound 7.318157661792e+04, gap 0.0000%
